(declare-fun var0 () String)
(declare-fun var1 () String)
(declare-fun var2 () String)
(declare-fun var3 () String)
(declare-fun var4 () String)
(declare-fun var5 () String)
(declare-fun var6 () String)
(declare-fun var7 () String)
(declare-fun var8 () String)
(declare-fun var9 () String)
(declare-fun var10 () String)
(declare-fun var11 () String)
(declare-fun var12 () String)
(declare-fun var13 () String)
(declare-fun var14 () String)
(declare-fun var15 () String)
(declare-fun var16 () String)
(declare-fun var17 () String)
(declare-fun var18 () String)
(declare-fun var19 () String)
(declare-fun var20 () String)
(declare-fun var21 () String)
(declare-fun var22 () String)
(declare-fun var23 () String)
(declare-fun var24 () String)
(declare-fun var25 () String)
(declare-fun var26 () String)
(declare-fun var27 () String)
(declare-fun var28 () String)
(declare-fun var29 () String)
(declare-fun var30 () String)
(declare-fun var31 () String)
(declare-fun var32 () String)
(declare-fun var33 () String)
(declare-fun var34 () String)
(declare-fun var35 () String)
(declare-fun var36 () String)
(declare-fun var37 () String)
(declare-fun var38 () String)
(declare-fun var39 () String)
(declare-fun var40 () String)
(declare-fun var41 () String)
(declare-fun var42 () String)
(declare-fun var43 () String)
(declare-fun var44 () String)
(declare-fun var45 () String)
(declare-fun var46 () String)
(declare-fun var47 () String)
(declare-fun var48 () String)
(declare-fun var49 () String)
(assert (= 46 (Length var0)))
(assert (= 46 (Length var1)))
(assert (= 79 (Length var2)))
(assert (= 2 (Length var3)))
(assert (= 6 (Length var4)))
(assert (= 32 (Length var5)))
(assert (= 10 (Length var6)))
(assert (= 88 (Length var7)))
(assert (= 14 (Length var8)))
(assert (= 0 (Length var9)))
(assert (= 55 (Length var10)))
(assert (= 33 (Length var11)))
(assert (= 61 (Length var12)))
(assert (= 49 (Length var13)))
(assert (= 61 (Length var14)))
(assert (= 100 (Length var15)))
(assert (= 13 (Length var16)))
(assert (= 47 (Length var17)))
(assert (= 70 (Length var18)))
(assert (= 29 (Length var19)))
(assert (= 60 (Length var20)))
(assert (= 92 (Length var21)))
(assert (= 14 (Length var22)))
(assert (= 99 (Length var23)))
(assert (= 16 (Length var24)))
(assert (= 98 (Length var25)))
(assert (= 53 (Length var26)))
(assert (= 10 (Length var27)))
(assert (= 20 (Length var28)))
(assert (= 79 (Length var29)))
(assert (= 100 (Length var30)))
(assert (= 97 (Length var31)))
(assert (= 0 (Length var32)))
(assert (= 81 (Length var33)))
(assert (= 19 (Length var34)))
(assert (= 44 (Length var35)))
(assert (= 17 (Length var36)))
(assert (= 6 (Length var37)))
(assert (= 24 (Length var38)))
(assert (= 52 (Length var39)))
(assert (= 78 (Length var40)))
(assert (= 7 (Length var41)))
(assert (= 80 (Length var42)))
(assert (= 93 (Length var43)))
(assert (= 78 (Length var44)))
(assert (= 51 (Length var45)))
(assert (= 12 (Length var46)))
(assert (= 6 (Length var47)))
(assert (= 32 (Length var48)))
(assert (= 8 (Length var49)))
(assert (= 46 (Length (Concat var5 var8))))
(assert (= 122 (Length (Concat var40 var35))))
(assert (= 59 (Length (Concat var26 var47))))
(assert (= 97 (Length (Concat var34 var44))))
(assert (= 68 (Length (Concat var16 var10))))
(check-sat)